NAME          DCAP_3_4_2_300_SS94
ROWS
 N  OBJ
 L  CON1
 L  CON2
 L  CON3
 L  CON4
 L  CON5
 L  CON6
 L  CON7
 L  CON8
 L  CON9
 L  CON10
 L  CON11
 L  CON12
 E  CON13
 E  CON14
 E  CON15
 E  CON16
 E  CON17
 E  CON18
 E  CON19
 E  CON20
COLUMNS
    x[1,1]    OBJ       6.180167      CON1      1.000000    
    x[1,1]    CON7      -1.000000     CON8      -1.000000   
    x[1,2]    OBJ       5.039546      CON2      1.000000    
    x[1,2]    CON8      -1.000000   
    x[2,1]    OBJ       6.732585      CON3      1.000000    
    x[2,1]    CON9      -1.000000     CON10     -1.000000   
    x[2,2]    OBJ       7.443064      CON4      1.000000    
    x[2,2]    CON10     -1.000000   
    x[3,1]    OBJ       6.563535      CON5      1.000000    
    x[3,1]    CON11     -1.000000     CON12     -1.000000   
    x[3,2]    OBJ       6.054841      CON6      1.000000    
    x[3,2]    CON12     -1.000000   
    MARKER    'MARKER'                'INTORG'
    u[1,1]    OBJ       48.076654     CON1      -1.000000   
    u[1,2]    OBJ       49.466655     CON2      -1.000000   
    u[2,1]    OBJ       49.996186     CON3      -1.000000   
    u[2,2]    OBJ       32.230043     CON4      -1.000000   
    u[3,1]    OBJ       20.066487     CON5      -1.000000   
    u[3,2]    OBJ       27.484319     CON6      -1.000000   
    y[1,1,1]  OBJ       5.131488      CON7      1.098786    
    y[1,1,1]  CON13     1.000000    
    y[1,1,2]  OBJ       8.998944      CON8      1.443467    
    y[1,1,2]  CON14     1.000000    
    y[1,2,1]  OBJ       8.548268      CON7      0.728805    
    y[1,2,1]  CON15     1.000000    
    y[1,2,2]  OBJ       6.435063      CON8      1.021245    
    y[1,2,2]  CON16     1.000000    
    y[1,3,1]  OBJ       5.584955      CON7      1.382959    
    y[1,3,1]  CON17     1.000000    
    y[1,3,2]  OBJ       9.502505      CON8      1.131257    
    y[1,3,2]  CON18     1.000000    
    y[1,4,1]  OBJ       8.719597      CON7      0.730617    
    y[1,4,1]  CON19     1.000000    
    y[1,4,2]  OBJ       6.178455      CON8      0.964278    
    y[1,4,2]  CON20     1.000000    
    y[2,1,1]  OBJ       5.499061      CON9      1.098786    
    y[2,1,1]  CON13     1.000000    
    y[2,1,2]  OBJ       7.939806      CON10     1.443467    
    y[2,1,2]  CON14     1.000000    
    y[2,2,1]  OBJ       5.389723      CON9      0.728805    
    y[2,2,1]  CON15     1.000000    
    y[2,2,2]  OBJ       7.914271      CON10     1.021245    
    y[2,2,2]  CON16     1.000000    
    y[2,3,1]  OBJ       8.354594      CON9      1.382959    
    y[2,3,1]  CON17     1.000000    
    y[2,3,2]  OBJ       5.259113      CON10     1.131257    
    y[2,3,2]  CON18     1.000000    
    y[2,4,1]  OBJ       7.733111      CON9      0.730617    
    y[2,4,1]  CON19     1.000000    
    y[2,4,2]  OBJ       8.430935      CON10     0.964278    
    y[2,4,2]  CON20     1.000000    
    y[3,1,1]  OBJ       7.327362      CON11     1.098786    
    y[3,1,1]  CON13     1.000000    
    y[3,1,2]  OBJ       7.178680      CON12     1.443467    
    y[3,1,2]  CON14     1.000000    
    y[3,2,1]  OBJ       8.065489      CON11     0.728805    
    y[3,2,1]  CON15     1.000000    
    y[3,2,2]  OBJ       6.118205      CON12     1.021245    
    y[3,2,2]  CON16     1.000000    
    y[3,3,1]  OBJ       9.337807      CON11     1.382959    
    y[3,3,1]  CON17     1.000000    
    y[3,3,2]  OBJ       8.989984      CON12     1.131257    
    y[3,3,2]  CON18     1.000000    
    y[3,4,1]  OBJ       7.863488      CON11     0.730617    
    y[3,4,1]  CON19     1.000000    
    y[3,4,2]  OBJ       7.849656      CON12     0.964278    
    y[3,4,2]  CON20     1.000000    
    z[1,1]    OBJ       696.878417    CON13     1.000000    
    z[1,2]    OBJ       905.122829    CON14     1.000000    
    z[2,1]    OBJ       865.221610    CON15     1.000000    
    z[2,2]    OBJ       545.786740    CON16     1.000000    
    z[3,1]    OBJ       621.650380    CON17     1.000000    
    z[3,2]    OBJ       789.318567    CON18     1.000000    
    z[4,1]    OBJ       983.020985    CON19     1.000000    
    z[4,2]    OBJ       583.067748    CON20     1.000000    
    MARKER    'MARKER'                 'INTEND'
RHS
    RHS       CON1      -0.000000     CON2      -0.000000   
    RHS       CON3      -0.000000     CON4      -0.000000   
    RHS       CON5      -0.000000     CON6      -0.000000   
    RHS       CON7      -0.000000     CON8      -0.000000   
    RHS       CON9      -0.000000     CON10     -0.000000   
    RHS       CON11     -0.000000     CON12     -0.000000   
    RHS       CON13     1.000000      CON14     1.000000    
    RHS       CON15     1.000000      CON16     1.000000    
    RHS       CON17     1.000000      CON18     1.000000    
    RHS       CON19     1.000000      CON20     1.000000    
BOUNDS
 BV BOUND     u[1,1]  
 BV BOUND     u[1,2]  
 BV BOUND     u[2,1]  
 BV BOUND     u[2,2]  
 BV BOUND     u[3,1]  
 BV BOUND     u[3,2]  
 BV BOUND     y[1,1,1]
 BV BOUND     y[1,1,2]
 BV BOUND     y[1,2,1]
 BV BOUND     y[1,2,2]
 BV BOUND     y[1,3,1]
 BV BOUND     y[1,3,2]
 BV BOUND     y[1,4,1]
 BV BOUND     y[1,4,2]
 BV BOUND     y[2,1,1]
 BV BOUND     y[2,1,2]
 BV BOUND     y[2,2,1]
 BV BOUND     y[2,2,2]
 BV BOUND     y[2,3,1]
 BV BOUND     y[2,3,2]
 BV BOUND     y[2,4,1]
 BV BOUND     y[2,4,2]
 BV BOUND     y[3,1,1]
 BV BOUND     y[3,1,2]
 BV BOUND     y[3,2,1]
 BV BOUND     y[3,2,2]
 BV BOUND     y[3,3,1]
 BV BOUND     y[3,3,2]
 BV BOUND     y[3,4,1]
 BV BOUND     y[3,4,2]
 BV BOUND     z[1,1]  
 BV BOUND     z[1,2]  
 BV BOUND     z[2,1]  
 BV BOUND     z[2,2]  
 BV BOUND     z[3,1]  
 BV BOUND     z[3,2]  
 BV BOUND     z[4,1]  
 BV BOUND     z[4,2]  
ENDATA
